************************************************************************
file with basedata            : j9041_.bas
initial value random generator: 2076444860
************************************************************************
projects                      :  1
jobs (incl. supersource/sink ):  92
horizon                       :  538
RESOURCES
  - renewable                 :  4   R
  - nonrenewable              :  0   N
  - doubly constrained        :  0   D
************************************************************************
PROJECT INFORMATION:
pronr.  #jobs rel.date duedate tardcost  MPM-Time
    1     90      0      105       41      105
************************************************************************
PRECEDENCE RELATIONS:
jobnr.    #modes  #successors   successors
   1        1          3           2   3   4
   2        1          3          16  20  26
   3        1          3           9  23  24
   4        1          3           5   6  12
   5        1          2          11  17
   6        1          3           7   8  10
   7        1          2          15  21
   8        1          3          11  17  43
   9        1          3          29  46  69
  10        1          3          50  53  89
  11        1          3          35  37  51
  12        1          3          13  18  19
  13        1          3          14  53  67
  14        1          3          36  42  74
  15        1          3          26  40  47
  16        1          2          29  42
  17        1          3          23  32  67
  18        1          3          22  45  48
  19        1          3          30  49  54
  20        1          3          34  39  41
  21        1          3          31  43  55
  22        1          2          59  90
  23        1          3          25  28  64
  24        1          3          38  40  62
  25        1          3          34  65  82
  26        1          3          27  28  38
  27        1          3          35  44  52
  28        1          3          39  62  79
  29        1          1          45
  30        1          2          33  57
  31        1          3          57  77  85
  32        1          3          60  70  81
  33        1          3          64  69  70
  34        1          2          44  62
  35        1          3          49  50  55
  36        1          1          59
  37        1          3          41  53  83
  38        1          3          39  46  55
  39        1          2          58  65
  40        1          3          44  61  74
  41        1          3          42  52  57
  42        1          2          46  58
  43        1          2          54  79
  44        1          3          48  50  84
  45        1          3          56  59  63
  46        1          2          60  70
  47        1          3          61  66  74
  48        1          1          49
  49        1          2          56  73
  50        1          1          88
  51        1          2          60  66
  52        1          3          61  68  71
  53        1          3          63  65  78
  54        1          3          68  76  84
  55        1          2          66  73
  56        1          2          76  79
  57        1          1          78
  58        1          1          75
  59        1          1          71
  60        1          2          71  88
  61        1          3          63  64  87
  62        1          1          89
  63        1          1          91
  64        1          1          86
  65        1          1          69
  66        1          3          67  75  76
  67        1          2          72  80
  68        1          2          72  73
  69        1          1          77
  70        1          1          80
  71        1          1          72
  72        1          1          82
  73        1          3          77  81  91
  74        1          3          75  78  83
  75        1          2          80  84
  76        1          1          83
  77        1          1          86
  78        1          1          91
  79        1          1          81
  80        1          1          82
  81        1          1          87
  82        1          1          85
  83        1          2          85  86
  84        1          1          90
  85        1          1          87
  86        1          1          88
  87        1          1          89
  88        1          1          90
  89        1          1          92
  90        1          1          92
  91        1          1          92
  92        1          0        
************************************************************************
REQUESTS/DURATIONS:
jobnr. mode duration  R 1  R 2  R 3  R 4
------------------------------------------------------------------------
  1      1     0       0    0    0    0
  2      1    10       5    0    1    6
  3      1     5       6    0    4   10
  4      1    10       0    4    0    0
  5      1     3       0    6    6    8
  6      1     8       7    3    0    7
  7      1     2       0    4    2    0
  8      1     6       0    6    0    0
  9      1     6       4    0    3    8
 10      1     1       3    0   10    0
 11      1     9       6    1    7    8
 12      1     2       0    6    0    8
 13      1     8       5    4    4    2
 14      1     9       1    3    3    0
 15      1     6       8   10    0    0
 16      1     8       8    4    8    0
 17      1     7       4    5   10    2
 18      1    10       0    0    4    3
 19      1     6       2    8    7    6
 20      1     4       2    4    5    8
 21      1     1       8    4    0    9
 22      1     8       0    9    4    0
 23      1     2       0    1    4    5
 24      1    10       7    4    4    3
 25      1     6       0    0    6    7
 26      1     5       5    4    5    1
 27      1     3       7    0    5    3
 28      1     7       9    3    6    9
 29      1     6       3    0    0    9
 30      1     9       7    0    6    0
 31      1     5       2    4    6    2
 32      1     3       4    2    0    1
 33      1     2       2    8    7    1
 34      1     8       3    8    8    8
 35      1     4       0    2    5    5
 36      1    10       6    4   10    9
 37      1     6       0    9    0    0
 38      1     3       0    5    4    8
 39      1     8       6    0    2    2
 40      1     5       4    0    6    0
 41      1     3       8    3    0    7
 42      1     6       3    0    5    4
 43      1     8       5    0    0    2
 44      1     7       0    5    9    0
 45      1     8       4    0    1    7
 46      1     2       0    5   10   10
 47      1    10       5    0    0    4
 48      1     4       0    0    5    5
 49      1     8       9    6    2    8
 50      1     3       6    4    8    2
 51      1     7       5    5    0    8
 52      1     4       7    3    0    2
 53      1    10       0    1    0    4
 54      1     8       1    6    0    2
 55      1     8       5    9    4    0
 56      1     4       3    2    3    3
 57      1     5       9    9   10    8
 58      1     6       1    5    6    0
 59      1     1       4    9    6    2
 60      1     2       0    6    0    5
 61      1     2       5    0    2    0
 62      1     5       0    6    1    3
 63      1     5      10    5    5    0
 64      1     9       7    4    1    2
 65      1     5       8    6    9    6
 66      1     4       7    0   10    6
 67      1     5       5    0    1   10
 68      1     9       0    2    5    0
 69      1     9       4    8    6    4
 70      1     8       4    2    7    0
 71      1    10       0    4    0    3
 72      1    10       6    9    1    3
 73      1    10       4    2    5    0
 74      1     1       0    0   10    0
 75      1     9       4    0    7   10
 76      1     5       0    3    5    1
 77      1     2       3    3    1    1
 78      1     6       1    7    9    7
 79      1     7       2    9   10    0
 80      1     8      10    3    4    0
 81      1     4       9    4    3   10
 82      1     2       2   10    5    7
 83      1     7      10    5    2    0
 84      1     1       3    9    0    9
 85      1     7       1    6    1    1
 86      1     6      10    4    1    4
 87      1     4       5    0    7   10
 88      1     9       6    0    0    7
 89      1     7       0    9    9    1
 90      1     8       2    2    6    8
 91      1     9       8    8    8    4
 92      1     0       0    0    0    0
************************************************************************
RESOURCEAVAILABILITIES:
  R 1  R 2  R 3  R 4
   16   18   21   18
************************************************************************
